(set-info :smt-lib-version 2.6)
(set-logic QF_FXP)
(set-info :category "crafted")
(set-info :source |Alberto Griggio <griggio@fbk.eu>. These benchmarks were used for the evaluation in the following paper: L. Haller, A. Griggio, M. Brain, D. Kroening: Deciding floating-point logic with systematic abstraction. FMCAD 2012. Real-numbered literals have been automatically translated by MathSAT|)
(set-info :status sat)
;; MathSAT API call trace ;; generated on 05/20/15 17:24:51 
(declare-fun b25 () (_ SFXP 32 16))
(declare-fun b14 () (_ SFXP 32 16))
(declare-fun b28 () (_ SFXP 32 16))
(declare-fun b20 () (_ SFXP 32 16))
(declare-fun b9 () (_ SFXP 32 16))
(define-fun _t_3 () RoundingMode roundUp)
(define-fun _t_9 () (_ SFXP 32 16) b9)
(define-fun _t_10 () (_ SFXP 32 16) (sfxp.mul saturation _t_3 _t_9 _t_9))
(define-fun _t_11 () (_ SFXP 32 16) (sfxp.add saturation _t_9 _t_10))
(define-fun _t_12 () (_ SFXP 32 16) _t_11)
(define-fun _t_13 () (_ SFXP 32 16) b20)
(define-fun _t_14 () Bool (sfxp.lt _t_12 _t_13))
(define-fun _t_15 () Bool (not _t_14))
(define-fun _t_16 () (_ SFXP 32 16) b28)
(define-fun _t_17 () Bool (sfxp.leq _t_16 _t_9))
(define-fun _t_18 () (_ SFXP 32 16) b25)
(define-fun _t_19 () Bool (sfxp.leq _t_9 _t_18))
(define-fun _t_20 () Bool (and _t_17 _t_19))
(define-fun _t_21 () Bool (and _t_15 _t_20))
(define-fun _t_22 () (_ SFXP 32 16) b14)
(define-fun _t_23 () Bool (sfxp.lt _t_12 _t_22))
(define-fun _t_24 () Bool (and _t_21 _t_23))
(assert _t_24)
(check-sat)
(exit)
